
Gurobi 11.0.3 (linux64) logging started Sun Aug 24 14:31:40 2025

Set parameter LogFile to value "/home/yihong/Coding/OR_SUC/SUC_ALSO_results_bigM100000_thread4/case24_ieee_rts_theta0.1_epsilon0.4_gurobi_seed90000_num_gen10_N_WDR50_load_scaling_factor2_ori_T2quadra_cost.txt"
Set parameter TimeLimit to value 3600
Gurobi Optimizer version 11.0.3 build v11.0.3rc0 (linux64 - "Ubuntu 20.04.6 LTS")

CPU model: AMD EPYC 7532 32-Core Processor, instruction set [SSE2|AVX|AVX2]
Thread count: 64 physical cores, 128 logical processors, using up to 4 threads

Academic license 2399124 - for non-commercial use only - registered to yi___@ed.ac.uk
Optimize a model with 8078 rows, 371 columns and 166142 nonzeros
Model fingerprint: 0x00868901
Model has 20 quadratic constraints
Variable types: 351 continuous, 20 integer (20 binary)
Coefficient statistics:
  Matrix range     [4e-04, 4e+04]
  QMatrix range    [2e-03, 8e-03]
  QLMatrix range   [1e+00, 5e+02]
  Objective range  [1e+00, 1e+00]
  Bounds range     [1e+00, 1e+00]
  RHS range        [1e-01, 1e+04]
Presolve removed 2023 rows and 182 columns
Presolve time: 0.11s
Presolved: 6055 rows, 189 columns, 124457 nonzeros
Presolved model has 20 quadratic constraint(s)
Variable types: 169 continuous, 20 integer (20 binary)

Root relaxation: objective 2.534927e+03, 115 iterations, 0.05 seconds (0.05 work units)

    Nodes    |    Current Node    |     Objective Bounds      |     Work
 Expl Unexpl |  Obj  Depth IntInf | Incumbent    BestBd   Gap | It/Node Time

     0     0 2534.92668    0    4          - 2534.92668      -     -    0s
     0     0 28035.5344    0   14          - 28035.5344      -     -    0s
     0     0 94206.7374    0    8          - 94206.7374      -     -    0s
     0     0 94500.9554    0    8          - 94500.9554      -     -    0s
     0     0 95757.9872    0    -          - 95757.9872      -     -    2s
     0     0 95831.3287    0    4          - 95831.3287      -     -    2s
     0     0 95840.8850    0    4          - 95840.8850      -     -    2s
     0     0 95841.2630    0    -          - 95841.2630      -     -    2s
     0     0 95841.4520    0    -          - 95841.4520      -     -    2s
     0     0 95841.5465    0    -          - 95841.5465      -     -    2s
     0     0 95841.5792    0    -          - 95841.5792      -     -    2s
     0     0 95841.5831    0    -          - 95841.5831      -     -    2s
     0     0 95841.5849    0    -          - 95841.5849      -     -    2s
     0     0 95841.5853    0    -          - 95841.5853      -     -    2s
     0     0 95841.5854    0    -          - 95841.5854      -     -    2s
     0     0 95841.5854    0    -          - 95841.5854      -     -    2s
     0     0 95841.5854    0    -          - 95841.5854      -     -    2s
     0     0 95841.5854    0    -          - 95841.5854      -     -    2s
     0     0 95841.5854    0    -          - 95841.5854      -     -    2s
     0     0 95841.5854    0    -          - 95841.5854      -     -    2s
     0     0 95841.5854    0   10          - 95841.5854      -     -   15s
H    0     0                    98385.105915 95841.5854  2.59%     -   15s
     0     0 95841.5854    0    - 98385.1059 95841.5854  2.59%     -   27s
     0     0 95841.5854    0    - 98385.1059 95841.5854  2.59%     -   27s
     0     0 95841.5854    0    - 98385.1059 95841.5854  2.59%     -   27s
     0     0 95841.5854    0    - 98385.1059 95841.5854  2.59%     -   27s
     0     0 95841.5854    0    - 98385.1059 95841.5854  2.59%     -   27s
     0     0 95841.5854    0    - 98385.1059 95841.5854  2.59%     -   27s
     0     0 95841.5854    0    - 98385.1059 95841.5854  2.59%     -   27s
     0     0 95841.5854    0    - 98385.1059 95841.5854  2.59%     -   27s
     0     0 95841.5854    0    - 98385.1059 95841.5854  2.59%     -   27s
     0     0 95841.5854    0    - 98385.1059 95841.5854  2.59%     -   27s
     0     0 95841.5854    0    - 98385.1059 95841.5854  2.59%     -   27s
     0     0 95841.5854    0    - 98385.1059 95841.5854  2.59%     -   27s
     0     0 95841.5854    0    - 98385.1059 95841.5854  2.59%     -   27s
     0     0 95841.5854    0    - 98385.1059 95841.5854  2.59%     -   27s
     0     0 95841.5854    0    - 98385.1059 95841.5854  2.59%     -   27s
     0     0 95841.5854    0    - 98385.1059 95841.5854  2.59%     -   27s

Cutting planes:
  Cover: 1
  Implied bound: 6
  MIR: 11
  Flow cover: 11

Explored 1 nodes (561 simplex iterations) in 27.10 seconds (14.71 work units)
Thread count was 4 (of 128 available processors)

Solution count 1: 98385.1 

Sub-optimal termination (unable to solve some node relaxations)
Best objective 9.838510591474e+04, best bound 9.584158544565e+04, gap 2.5853%
